c User generated cnf file
p cnf 10 38
-2 3 3 0 
5 -7 5 0 
-9 5 7 0 
-1 10 10 0 
7 7 -7 0 
3 -2 7 0 
6 -6 2 0 
10 10 -10 0 
-2 9 10 0 
7 8 -1 0 
-8 3 5 0 
8 -9 9 0 
8 8 -9 0 
4 7 -4 0 
3 -8 9 0 
9 -6 9 0 
2 7 -9 0 
-8 9 8 0 
-1 6 1 0 
9 -2 10 0 
-9 4 9 0 
-6 9 9 0 
10 -5 7 0 
-7 10 8 0 
1 4 -7 0 
4 4 -7 0 
-9 6 5 0 
-9 8 2 0 
-8 1 8 0 
5 -9 7 0 
-9 3 1 0 
4 -9 5 0 
-3 5 5 0 
10 -7 4 0 
-8 2 1 0 
8 -4 7 0 
-2 4 8 0 
-8 8 6 0 
